c SAT Generator for power-law distributed variable frequencies
c -g u -v 20 -c 91 -k 3 -p 2.750000 -b 3.200000 -f /home/schmidt/Devel/ni-kop-sat/data/ensemble/ruf20-91/ruf20-91-147 -u 1 -U 1 -s 2417305210
p cnf 20 91
-5 14 17 0
2 -10 -13 0
-2 -5 -10 0
4 -17 -19 0
1 14 17 0
-9 14 -18 0
9 -12 -16 0
-6 -8 -9 0
4 -9 -12 0
7 -17 -18 0
1 13 15 0
2 4 -8 0
-12 14 20 0
-6 -12 18 0
-1 3 4 0
4 10 -18 0
13 -15 18 0
9 -17 18 0
-10 12 -20 0
2 -8 11 0
-6 -19 -20 0
9 -10 -11 0
-3 -9 -19 0
-2 -9 -17 0
-2 -19 20 0
3 -11 20 0
-11 14 -15 0
4 -5 20 0
4 8 9 0
-5 -7 -15 0
2 7 -9 0
6 11 -15 0
-1 10 -11 0
-10 15 18 0
-10 -12 16 0
4 -18 20 0
-2 8 -20 0
-6 -7 -16 0
4 -11 -14 0
-9 -10 19 0
-2 -5 19 0
-6 7 9 0
-1 10 -17 0
10 -16 -20 0
-1 -9 -12 0
7 -16 19 0
-3 -8 10 0
-2 -11 16 0
-2 -11 14 0
11 -13 17 0
3 -11 14 0
1 -2 4 0
1 11 -20 0
-5 -14 -16 0
2 -10 15 0
6 17 -18 0
1 -9 20 0
-11 14 20 0
-14 15 19 0
-5 6 -15 0
4 5 7 0
-1 7 16 0
-10 -12 -19 0
-1 11 -19 0
-12 13 15 0
-10 16 -18 0
14 17 19 0
15 -16 19 0
13 -17 -20 0
-5 12 13 0
-7 17 -20 0
-1 -3 -14 0
3 -5 -12 0
-9 14 17 0
-2 -14 20 0
4 -7 15 0
1 7 -9 0
-5 7 -16 0
10 -17 -19 0
-4 -10 12 0
5 18 -20 0
-6 12 -20 0
5 -8 -10 0
2 -4 -20 0
-6 -11 -16 0
-5 -7 12 0
10 17 -19 0
-11 -13 -19 0
4 -5 10 0
3 -12 -17 0
-9 19 -20 0
